p cnf 219 983
118 124 127 0
97 109 0
120 131 163 168 0
94 100 115 0
92 128 174 0
125 187 0
138 184 0
80 103 142 0
78 129 144 189 0
68 90 191 218 0
136 160 0
93 117 122 0
86 146 0
88 95 204 207 0
81 82 110 0
79 105 121 143 0
70 72 74 76 0
64 67 149 0
98 107 108 134 0
113 137 151 154 158 162 0
130 132 164 0
116 169 170 172 173 0
175 177 0
85 181 182 0
139 185 186 0
71 190 0
99 192 194 0
152 156 161 195 197 0
167 198 0
87 176 179 199 201 203 0
96 205 0
206 208 209 210 0
104 211 0
135 150 0
180 183 0
111 126 0
133 140 214 215 0
188 216 0
66 83 119 0
148 193 217 219 0
155 159 196 0
57 58 59 60 63 0
145 178 202 0
-55 -125 0
-55 -138 0
-55 -129 0
-54 -55 0
-55 -68 0
-125 -138 0
-125 -129 0
-54 -125 0
-68 -125 0
-129 -138 0
-54 -138 0
-68 -138 0
-54 -129 0
-68 -129 0
-54 -68 0
-52 -53 0
-53 -122 0
-53 -95 0
-53 -82 0
-51 -53 0
-52 -122 0
-52 -95 0
-52 -82 0
-51 -52 0
-95 -122 0
-82 -122 0
-51 -122 0
-82 -95 0
-51 -95 0
-51 -82 0
-50 -181 0
-49 -181 0
-48 -181 0
-47 -181 0
-71 -181 0
-49 -50 0
-48 -50 0
-47 -50 0
-50 -71 0
-48 -49 0
-47 -49 0
-49 -71 0
-47 -48 0
-48 -71 0
-47 -71 0
-46 -211 0
-73 -211 0
-150 -211 0
-106 -211 0
-112 -211 0
-46 -73 0
-46 -150 0
-46 -106 0
-46 -112 0
-73 -150 0
-73 -106 0
-73 -112 0
-106 -150 0
-112 -150 0
-106 -112 0
-45 -180 0
-45 -84 0
-45 -214 0
-45 -188 0
-44 -45 0
-84 -180 0
-180 -214 0
-180 -188 0
-44 -180 0
-84 -214 0
-84 -188 0
-44 -84 0
-188 -214 0
-44 -214 0
-44 -188 0
-89 -148 0
-148 -155 0
-63 -148 0
-42 -148 0
-148 -202 0
-89 -155 0
-63 -89 0
-42 -89 0
-89 -202 0
-63 -155 0
-42 -155 0
-155 -202 0
-42 -63 0
-63 -202 0
-42 -202 0
-53 -55 0
-55 -181 0
-55 -211 0
-45 -55 0
-55 -148 0
-53 -181 0
-53 -211 0
-45 -53 0
-53 -148 0
-181 -211 0
-45 -181 0
-148 -181 0
-45 -211 0
-148 -211 0
-45 -148 0
-52 -125 0
-50 -125 0
-46 -125 0
-125 -180 0
-89 -125 0
-50 -52 0
-46 -52 0
-52 -180 0
-52 -89 0
-46 -50 0
-50 -180 0
-50 -89 0
-46 -180 0
-46 -89 0
-89 -180 0
-122 -138 0
-49 -138 0
-73 -138 0
-84 -138 0
-138 -155 0
-49 -122 0
-73 -122 0
-84 -122 0
-122 -155 0
-49 -73 0
-49 -84 0
-49 -155 0
-73 -84 0
-73 -155 0
-84 -155 0
-95 -129 0
-48 -129 0
-129 -150 0
-129 -214 0
-63 -129 0
-48 -95 0
-95 -150 0
-95 -214 0
-63 -95 0
-48 -150 0
-48 -214 0
-48 -63 0
-150 -214 0
-63 -150 0
-63 -214 0
-54 -82 0
-47 -54 0
-54 -106 0
-54 -188 0
-42 -54 0
-47 -82 0
-82 -106 0
-82 -188 0
-42 -82 0
-47 -106 0
-47 -188 0
-42 -47 0
-106 -188 0
-42 -106 0
-42 -188 0
-51 -68 0
-68 -71 0
-68 -112 0
-44 -68 0
-68 -202 0
-51 -71 0
-51 -112 0
-44 -51 0
-51 -202 0
-71 -112 0
-44 -71 0
-71 -202 0
-44 -112 0
-112 -202 0
-44 -202 0
-67 -151 0
-39 -199 0
-39 -67 0
-151 -199 0
-37 -127 0
-37 -109 0
-37 -157 0
-37 -163 0
-37 -115 0
-109 -127 0
-127 -157 0
-127 -163 0
-115 -127 0
-109 -157 0
-109 -163 0
-109 -115 0
-157 -163 0
-115 -157 0
-115 -163 0
-34 -36 0
-36 -184 0
-36 -103 0
-36 -78 0
-33 -36 0
-34 -184 0
-34 -103 0
-34 -78 0
-33 -34 0
-103 -184 0
-78 -184 0
-33 -184 0
-78 -103 0
-33 -103 0
-33 -78 0
-175 -182 0
-32 -175 0
-139 -175 0
-30 -175 0
-141 -175 0
-32 -182 0
-139 -182 0
-30 -182 0
-141 -182 0
-32 -139 0
-30 -32 0
-32 -141 0
-30 -139 0
-139 -141 0
-30 -141 0
-152 -192 0
-29 -192 0
-56 -192 0
-192 -201 0
-96 -192 0
-29 -152 0
-56 -152 0
-152 -201 0
-96 -152 0
-29 -56 0
-29 -201 0
-29 -96 0
-56 -201 0
-56 -96 0
-96 -201 0
-27 -171 0
-26 -171 0
-111 -171 0
-171 -215 0
-171 -216 0
-26 -27 0
-27 -111 0
-27 -215 0
-27 -216 0
-26 -111 0
-26 -215 0
-26 -216 0
-111 -215 0
-111 -216 0
-215 -216 0
-119 -217 0
-119 -196 0
-25 -119 0
-60 -119 0
-24 -119 0
-196 -217 0
-25 -217 0
-60 -217 0
-24 -217 0
-25 -196 0
-60 -196 0
-24 -196 0
-25 -60 0
-24 -25 0
-24 -60 0
-36 -37 0
-37 -175 0
-37 -192 0
-37 -171 0
-37 -119 0
-36 -175 0
-36 -192 0
-36 -171 0
-36 -119 0
-175 -192 0
-171 -175 0
-119 -175 0
-171 -192 0
-119 -192 0
-119 -171 0
-34 -127 0
-127 -182 0
-127 -152 0
-27 -127 0
-127 -217 0
-34 -182 0
-34 -152 0
-27 -34 0
-34 -217 0
-152 -182 0
-27 -182 0
-182 -217 0
-27 -152 0
-152 -217 0
-27 -217 0
-109 -184 0
-32 -109 0
-29 -109 0
-26 -109 0
-109 -196 0
-32 -184 0
-29 -184 0
-26 -184 0
-184 -196 0
-29 -32 0
-26 -32 0
-32 -196 0
-26 -29 0
-29 -196 0
-26 -196 0
-103 -157 0
-139 -157 0
-56 -157 0
-111 -157 0
-25 -157 0
-103 -139 0
-56 -103 0
-103 -111 0
-25 -103 0
-56 -139 0
-111 -139 0
-25 -139 0
-56 -111 0
-25 -56 0
-25 -111 0
-78 -163 0
-30 -163 0
-163 -201 0
-163 -215 0
-60 -163 0
-30 -78 0
-78 -201 0
-78 -215 0
-60 -78 0
-30 -201 0
-30 -215 0
-30 -60 0
-201 -215 0
-60 -201 0
-60 -215 0
-33 -115 0
-115 -141 0
-96 -115 0
-115 -216 0
-24 -115 0
-33 -141 0
-33 -96 0
-33 -216 0
-24 -33 0
-96 -141 0
-141 -216 0
-24 -141 0
-96 -216 0
-24 -96 0
-24 -216 0
-69 -124 0
-69 -97 0
-69 -131 0
-69 -92 0
-97 -124 0
-124 -131 0
-92 -124 0
-97 -131 0
-92 -97 0
-92 -131 0
-160 -166 0
-117 -160 0
-160 -204 0
-22 -160 0
-117 -166 0
-166 -204 0
-22 -166 0
-117 -204 0
-22 -117 0
-22 -204 0
-76 -105 0
-64 -105 0
-105 -154 0
-105 -169 0
-64 -76 0
-76 -154 0
-76 -169 0
-64 -154 0
-64 -169 0
-154 -169 0
-194 -195 0
-21 -194 0
-176 -194 0
-194 -206 0
-21 -195 0
-176 -195 0
-195 -206 0
-21 -176 0
-21 -206 0
-176 -206 0
-20 -114 0
-35 -114 0
-114 -133 0
-102 -114 0
-20 -35 0
-20 -133 0
-20 -102 0
-35 -133 0
-35 -102 0
-102 -133 0
-69 -160 0
-69 -105 0
-69 -194 0
-69 -114 0
-105 -160 0
-160 -194 0
-114 -160 0
-105 -194 0
-105 -114 0
-114 -194 0
-124 -166 0
-76 -124 0
-124 -195 0
-20 -124 0
-76 -166 0
-166 -195 0
-20 -166 0
-76 -195 0
-20 -76 0
-20 -195 0
-97 -117 0
-64 -97 0
-21 -97 0
-35 -97 0
-64 -117 0
-21 -117 0
-35 -117 0
-21 -64 0
-35 -64 0
-21 -35 0
-131 -204 0
-131 -154 0
-131 -176 0
-131 -133 0
-154 -204 0
-176 -204 0
-133 -204 0
-154 -176 0
-133 -154 0
-133 -176 0
-22 -92 0
-92 -169 0
-92 -206 0
-92 -102 0
-22 -169 0
-22 -206 0
-22 -102 0
-169 -206 0
-102 -169 0
-102 -206 0
-18 -19 0
-19 -93 0
-19 -86 0
-19 -88 0
-17 -19 0
-18 -93 0
-18 -86 0
-18 -88 0
-17 -18 0
-86 -93 0
-88 -93 0
-17 -93 0
-86 -88 0
-17 -86 0
-17 -88 0
-16 -74 0
-74 -149 0
-74 -107 0
-74 -113 0
-74 -116 0
-16 -149 0
-16 -107 0
-16 -113 0
-16 -116 0
-107 -149 0
-113 -149 0
-116 -149 0
-107 -113 0
-107 -116 0
-113 -116 0
-15 -85 0
-85 -213 0
-85 -186 0
-43 -85 0
-85 -190 0
-15 -213 0
-15 -186 0
-15 -43 0
-15 -190 0
-186 -213 0
-43 -213 0
-190 -213 0
-43 -186 0
-186 -190 0
-43 -190 0
-156 -198 0
-62 -156 0
-41 -156 0
-156 -203 0
-156 -208 0
-62 -198 0
-41 -198 0
-198 -203 0
-198 -208 0
-41 -62 0
-62 -203 0
-62 -208 0
-41 -203 0
-41 -208 0
-203 -208 0
-91 -183 0
-14 -91 0
-91 -126 0
-91 -140 0
-13 -91 0
-14 -183 0
-126 -183 0
-140 -183 0
-13 -183 0
-14 -126 0
-14 -140 0
-13 -14 0
-126 -140 0
-13 -126 0
-13 -140 0
-12 -193 0
-159 -193 0
-165 -193 0
-59 -193 0
-178 -193 0
-12 -159 0
-12 -165 0
-12 -59 0
-12 -178 0
-159 -165 0
-59 -159 0
-159 -178 0
-59 -165 0
-165 -178 0
-59 -178 0
-19 -74 0
-19 -85 0
-19 -156 0
-19 -91 0
-19 -193 0
-74 -85 0
-74 -156 0
-74 -91 0
-74 -193 0
-85 -156 0
-85 -91 0
-85 -193 0
-91 -156 0
-156 -193 0
-91 -193 0
-16 -18 0
-15 -18 0
-18 -198 0
-18 -183 0
-12 -18 0
-15 -16 0
-16 -198 0
-16 -183 0
-12 -16 0
-15 -198 0
-15 -183 0
-12 -15 0
-183 -198 0
-12 -198 0
-12 -183 0
-93 -149 0
-93 -213 0
-62 -93 0
-14 -93 0
-93 -159 0
-149 -213 0
-62 -149 0
-14 -149 0
-149 -159 0
-62 -213 0
-14 -213 0
-159 -213 0
-14 -62 0
-62 -159 0
-14 -159 0
-86 -107 0
-86 -186 0
-41 -86 0
-86 -126 0
-86 -165 0
-107 -186 0
-41 -107 0
-107 -126 0
-107 -165 0
-41 -186 0
-126 -186 0
-165 -186 0
-41 -126 0
-41 -165 0
-126 -165 0
-88 -113 0
-43 -88 0
-88 -203 0
-88 -140 0
-59 -88 0
-43 -113 0
-113 -203 0
-113 -140 0
-59 -113 0
-43 -203 0
-43 -140 0
-43 -59 0
-140 -203 0
-59 -203 0
-59 -140 0
-17 -116 0
-17 -190 0
-17 -208 0
-13 -17 0
-17 -178 0
-116 -190 0
-116 -208 0
-13 -116 0
-116 -178 0
-190 -208 0
-13 -190 0
-178 -190 0
-13 -208 0
-178 -208 0
-13 -178 0
-10 -11 0
-11 -94 0
-11 -128 0
-10 -94 0
-10 -128 0
-94 -128 0
-9 -80 0
-9 -65 0
-9 -218 0
-65 -80 0
-80 -218 0
-65 -218 0
-136 -146 0
-81 -136 0
-8 -136 0
-81 -146 0
-8 -146 0
-8 -81 0
-98 -121 0
-121 -132 0
-121 -170 0
-98 -132 0
-98 -170 0
-132 -170 0
-9 -11 0
-11 -136 0
-11 -121 0
-9 -136 0
-9 -121 0
-121 -136 0
-10 -80 0
-10 -146 0
-10 -98 0
-80 -146 0
-80 -98 0
-98 -146 0
-65 -94 0
-81 -94 0
-94 -132 0
-65 -81 0
-65 -132 0
-81 -132 0
-128 -218 0
-8 -128 0
-128 -170 0
-8 -218 0
-170 -218 0
-8 -170 0
-7 -118 0
-6 -7 0
-7 -120 0
-7 -174 0
-6 -118 0
-118 -120 0
-118 -174 0
-6 -120 0
-6 -174 0
-120 -174 0
-5 -31 0
-5 -142 0
-5 -144 0
-5 -191 0
-31 -142 0
-31 -144 0
-31 -191 0
-142 -144 0
-142 -191 0
-144 -191 0
-72 -79 0
-79 -134 0
-79 -137 0
-79 -172 0
-72 -134 0
-72 -137 0
-72 -172 0
-134 -137 0
-134 -172 0
-137 -172 0
-99 -197 0
-23 -99 0
-87 -99 0
-99 -209 0
-23 -197 0
-87 -197 0
-197 -209 0
-23 -87 0
-23 -209 0
-87 -209 0
-66 -219 0
-38 -66 0
-58 -66 0
-66 -145 0
-38 -219 0
-58 -219 0
-145 -219 0
-38 -58 0
-38 -145 0
-58 -145 0
-5 -7 0
-7 -79 0
-7 -99 0
-7 -66 0
-5 -79 0
-5 -99 0
-5 -66 0
-79 -99 0
-66 -79 0
-66 -99 0
-31 -118 0
-72 -118 0
-118 -197 0
-118 -219 0
-31 -72 0
-31 -197 0
-31 -219 0
-72 -197 0
-72 -219 0
-197 -219 0
-6 -142 0
-6 -134 0
-6 -23 0
-6 -38 0
-134 -142 0
-23 -142 0
-38 -142 0
-23 -134 0
-38 -134 0
-23 -38 0
-120 -144 0
-120 -137 0
-87 -120 0
-58 -120 0
-137 -144 0
-87 -144 0
-58 -144 0
-87 -137 0
-58 -137 0
-58 -87 0
-174 -191 0
-172 -174 0
-174 -209 0
-145 -174 0
-172 -191 0
-191 -209 0
-145 -191 0
-172 -209 0
-145 -172 0
-145 -209 0
-3 -4 0
-4 -168 0
-4 -100 0
-3 -168 0
-3 -100 0
-100 -168 0
-108 -143 0
-143 -158 0
-143 -164 0
-108 -158 0
-108 -164 0
-158 -164 0
-177 -185 0
-101 -177 0
-77 -177 0
-101 -185 0
-77 -185 0
-77 -101 0
-28 -83 0
-57 -83 0
-83 -200 0
-28 -57 0
-28 -200 0
-57 -200 0
-4 -143 0
-4 -177 0
-4 -83 0
-143 -177 0
-83 -143 0
-83 -177 0
-3 -108 0
-3 -185 0
-3 -28 0
-108 -185 0
-28 -108 0
-28 -185 0
-158 -168 0
-101 -168 0
-57 -168 0
-101 -158 0
-57 -158 0
-57 -101 0
-100 -164 0
-77 -100 0
-100 -200 0
-77 -164 0
-164 -200 0
-77 -200 0
-187 -212 0
-189 -212 0
-147 -212 0
-90 -212 0
-187 -189 0
-147 -187 0
-90 -187 0
-147 -189 0
-90 -189 0
-90 -147 0
-40 -61 0
-61 -207 0
-61 -110 0
-1 -61 0
-40 -207 0
-40 -110 0
-1 -40 0
-110 -207 0
-1 -207 0
-1 -110 0
-70 -123 0
-70 -162 0
-70 -130 0
-70 -173 0
-123 -162 0
-123 -130 0
-123 -173 0
-130 -162 0
-162 -173 0
-130 -173 0
-161 -167 0
-161 -179 0
-161 -205 0
-161 -210 0
-167 -179 0
-167 -205 0
-167 -210 0
-179 -205 0
-179 -210 0
-205 -210 0
-75 -104 0
-104 -135 0
-104 -153 0
-2 -104 0
-75 -135 0
-75 -153 0
-2 -75 0
-135 -153 0
-2 -135 0
-2 -153 0
-61 -212 0
-70 -212 0
-161 -212 0
-104 -212 0
-61 -70 0
-61 -161 0
-61 -104 0
-70 -161 0
-70 -104 0
-104 -161 0
-40 -187 0
-123 -187 0
-167 -187 0
-75 -187 0
-40 -123 0
-40 -167 0
-40 -75 0
-123 -167 0
-75 -123 0
-75 -167 0
-189 -207 0
-162 -189 0
-179 -189 0
-135 -189 0
-162 -207 0
-179 -207 0
-135 -207 0
-162 -179 0
-135 -162 0
-135 -179 0
-110 -147 0
-130 -147 0
-147 -205 0
-147 -153 0
-110 -130 0
-110 -205 0
-110 -153 0
-130 -205 0
-130 -153 0
-153 -205 0
-1 -90 0
-90 -173 0
-90 -210 0
-2 -90 0
-1 -173 0
-1 -210 0
-1 -2 0
-173 -210 0
-2 -173 0
-2 -210 0
